
#(C) 2017 by FIZ Karlsruhe - Leibniz Institute for Information Infrastructure.  All rights reserved.
data_110776-ICSD
_database_code_ICSD 110776
_audit_creation_date 2010-02-01
_chemical_name_systematic 'Carbon dioxide - II, HP, HT'
_chemical_formula_structural 'C O2'
_chemical_formula_sum 'C1 O2'
_exptl_crystal_density_diffrn 2.83
_cell_measurement_temperature 680.
_cell_measurement_pressure 28000000.
_publ_section_title

;
Crystal structure of pseudo-six-fold carbon dioxide phase II at high pressures
and temperatures
;
loop_
_citation_id
_citation_journal_full
_citation_year
_citation_journal_volume
_citation_page_first
_citation_page_last
_citation_journal_id_ASTM
primary 'Physical Review, Serie 3. B - Condensed Matter (18,1978-)' 2002 65
104103-1 104103-6 PRBMDO
loop_
_publ_author_name
'Yoo, C.S.'
'Kohlmann, H.'
'Cynn, H.'
'Nicol, M.F.'
'Iota, V.'
'Le Bihan, T.'
_cell_length_a 3.4833(7)
_cell_length_b 3.5698(8)
_cell_length_c 4.1466(5)
_cell_angle_alpha 90.
_cell_angle_beta 90.
_cell_angle_gamma 90.
_cell_volume 51.56
_cell_formula_units_Z 2
_symmetry_space_group_name_H-M 'P n n m'
_symmetry_Int_Tables_number 58
_refine_ls_R_factor_all 0.122
loop_
_symmetry_equiv_pos_site_id
_symmetry_equiv_pos_as_xyz
1 'x+1/2, -y+1/2, z+1/2'
2 '-x+1/2, y+1/2, z+1/2'
3 'x, y, -z'
4 '-x, -y, -z'
5 '-x+1/2, y+1/2, -z+1/2'
6 'x+1/2, -y+1/2, -z+1/2'
7 '-x, -y, z'
8 'x, y, z'
loop_
_atom_type_symbol
_atom_type_oxidation_number
C4+ 4
O2- -2
loop_
_atom_site_label
_atom_site_type_symbol
_atom_site_symmetry_multiplicity
_atom_site_Wyckoff_symbol
_atom_site_fract_x
_atom_site_fract_y
_atom_site_fract_z
_atom_site_B_iso_or_equiv
_atom_site_occupancy
_atom_site_attached_hydrogens
C1 C4+ 2 a 0 0 0 5.9(4) 1. 0
O1 O2- 4 g 0.2658(9) 0.2667(9) 0 4.9(2) 1. 0
#End of TTdata_110776-ICSD