
data_236928-ICSD
_database_code_ICSD 236928
_audit_creation_date 2015-02-01
_chemical_name_systematic 'Carbon dioxide - IV'
_chemical_formula_structural 'C O2'
_chemical_formula_sum 'C1 O2'
_chemical_name_structure_type Cristobalite(alpha)
_exptl_crystal_density_diffrn 2.55
_cell_measurement_pressure 15000000.
_cell_length_a 4.335(7)
_cell_length_b 4.335(7)
_cell_length_c 6.102(3)
_cell_angle_alpha 90.
_cell_angle_beta 90.
_cell_angle_gamma 90.
_cell_volume 114.67
_cell_formula_units_Z 4
_symmetry_space_group_name_H-M 'P 41 21 2'
_symmetry_Int_Tables_number 92
_refine_ls_R_factor_all 0.0235
loop_
_symmetry_equiv_pos_site_id
_symmetry_equiv_pos_as_xyz
1 'x+1/2, -y+1/2, -z+3/4'
2 '-x+1/2, y+1/2, -z+1/4'
3 '-y, -x, -z+1/2'
4 'y, x, -z'
5 'y+1/2, -x+1/2, z+3/4'
6 '-y+1/2, x+1/2, z+1/4'
7 '-x, -y, z+1/2'
8 'x, y, z'
loop_
_atom_type_symbol
_atom_type_oxidation_number
C4+ 4
O2- -2
loop_
_atom_site_label
_atom_site_type_symbol
_atom_site_symmetry_multiplicity
_atom_site_Wyckoff_symbol
_atom_site_fract_x
_atom_site_fract_y
_atom_site_fract_z
_atom_site_B_iso_or_equiv
_atom_site_occupancy
_atom_site_attached_hydrogens
C1 C4+ 4 a 0.460(2) 0.460(2) 0 0.146(10) 1. 0
O1 O2- 8 b 0.262(2) 0.218(2) 0.260(1) 0.087(3) 1. 0
