
#(C) 2017 by FIZ Karlsruhe - Leibniz Institute for Information Infrastructure.  All rights reserved.
data_41950-ICSD
_database_code_ICSD 41950
_audit_creation_date 2000-07-15
_chemical_name_systematic 'Carbon nitride (3/4) - beta'
_chemical_formula_structural 'C3 N4'
_chemical_formula_sum 'C3 N4'
_exptl_crystal_density_diffrn 3.57
_publ_section_title 'Stability of carbon nitride solids'
loop_
_citation_id
_citation_journal_full
_citation_year
_citation_journal_volume
_citation_page_first
_citation_page_last
_citation_journal_id_ASTM
primary 'Physical Review, Serie 3. B - Solid State (1,1970-17,1977)' 1994 50
10362 10365 PLRBAQ
loop_
_publ_author_name
'Liu, A.Y.'
'Wentzcovitch, R.M.'
_cell_length_a 6.41
_cell_length_b 6.41
_cell_length_c 2.404
_cell_angle_alpha 90.
_cell_angle_beta 90.
_cell_angle_gamma 120.
_cell_volume 85.54
_cell_formula_units_Z 2
_symmetry_space_group_name_H-M 'P -3'
_symmetry_Int_Tables_number 147
loop_
_symmetry_equiv_pos_site_id
_symmetry_equiv_pos_as_xyz
1 'x-y, x, -z'
2 'y, -x+y, -z'
3 '-x, -y, -z'
4 '-x+y, -x, z'
5 '-y, x-y, z'
6 'x, y, z'
loop_
_atom_type_symbol
_atom_type_oxidation_number
C0+ 0
N0+ 0
loop_
_atom_site_label
_atom_site_type_symbol
_atom_site_symmetry_multiplicity
_atom_site_Wyckoff_symbol
_atom_site_fract_x
_atom_site_fract_y
_atom_site_fract_z
_atom_site_B_iso_or_equiv
_atom_site_occupancy
_atom_site_attached_hydrogens
C1 C0+ 6 g 0.178 0.772 0.25 . 1. 0
N1 N0+ 6 g 0.331 0.033 0.25 . 1. 0
N2 N0+ 2 d 0.3333 0.6667 0.25 . 1. 0
#End of TTdata_41950-ICSD