
#(C) 2017 by FIZ Karlsruhe - Leibniz Institute for Information Infrastructure.  All rights reserved.
data_15672-ICSD
_database_code_ICSD 15672
_audit_creation_date 1980-01-01
_audit_update_record 2006-10-01
_chemical_name_systematic 'Carbon disulfide'
_chemical_formula_structural 'C S2'
_chemical_formula_sum 'C1 S2'
_chemical_name_structure_type CS2
_exptl_crystal_density_diffrn 1.58
_cell_measurement_temperature 148.
_publ_section_title
'Crystal structure and molecular motion of solid carbon disulfide'
loop_
_citation_id
_citation_journal_full
_citation_year
_citation_journal_volume
_citation_page_first
_citation_page_last
_citation_journal_id_ASTM
primary 'Journal of Chemical Physics' 1968 48 2974 2981 JCPSA6
loop_
_publ_author_name
'Baenziger, N.C.'
'Duax, W.L.'
_cell_length_a 6.393(2)
_cell_length_b 5.582(2)
_cell_length_c 8.963(3)
_cell_angle_alpha 90.
_cell_angle_beta 90.
_cell_angle_gamma 90.
_cell_volume 319.85
_cell_formula_units_Z 4
_symmetry_space_group_name_H-M 'C m c a'
_symmetry_Int_Tables_number 64
_refine_ls_R_factor_all 0.039
loop_
_symmetry_equiv_pos_site_id
_symmetry_equiv_pos_as_xyz
1 '-x, -y+1/2, z+1/2'
2 '-x, y+1/2, -z+1/2'
3 '-x, y, z'
4 '-x, -y, -z'
5 'x, y+1/2, -z+1/2'
6 'x, -y+1/2, z+1/2'
7 'x, -y, -z'
8 'x, y, z'
9 '-x+1/2, -y, z+1/2'
10 '-x+1/2, y, -z+1/2'
11 '-x+1/2, y+1/2, z'
12 '-x+1/2, -y+1/2, -z'
13 'x+1/2, y, -z+1/2'
14 'x+1/2, -y, z+1/2'
15 'x+1/2, -y+1/2, -z'
16 'x+1/2, y+1/2, z'
loop_
_atom_type_symbol
_atom_type_oxidation_number
C4+ 4
S2- -2
loop_
_atom_site_label
_atom_site_type_symbol
_atom_site_symmetry_multiplicity
_atom_site_Wyckoff_symbol
_atom_site_fract_x
_atom_site_fract_y
_atom_site_fract_z
_atom_site_B_iso_or_equiv
_atom_site_occupancy
_atom_site_attached_hydrogens
C1 C4+ 4 b 0.5 0.5 0.5 . 1. 0
S1 S2- 8 f 0 0.2000(1) 0.1281(7) . 1. 0
loop_
_atom_site_aniso_label
_atom_site_aniso_type_symbol
_atom_site_aniso_U_11
_atom_site_aniso_U_22
_atom_site_aniso_U_33
_atom_site_aniso_U_12
_atom_site_aniso_U_13
_atom_site_aniso_U_23
C1 C4+ 0.046(2) 0.056(2) 0.047(1) 0 0 0.013(2)
S1 S2- 0.0641(7) 0.0636(7) 0.0549(5) 0 0 -.0039(3)
#End of TTdata_15672-ICSD