
#(C) 2017 by FIZ Karlsruhe - Leibniz Institute for Information Infrastructure.  All rights reserved.
data_173995-ICSD
_database_code_ICSD 173995
_audit_creation_date 2010-02-01
_audit_update_record 2010-08-01
_chemical_name_systematic 'Selenium cyanide'
_chemical_formula_structural 'Se (C N)2'
_chemical_formula_sum 'C2 N2 Se1'
_exptl_crystal_density_diffrn 2.13
_publ_section_title
'The crystal structures of selenium dicyanide and sulphur dicyanide'
loop_
_citation_id
_citation_journal_full
_citation_year
_citation_journal_volume
_citation_page_first
_citation_page_last
_citation_journal_id_ASTM
primary 'Acta Crystallographica (1,1948-23,1967)' 1963 16 843 844 ACCRA9
loop_
_publ_author_name
'Hazell, A.C.'
_cell_length_a 8.71(2)
_cell_length_b 6.98(2)
_cell_length_c 13.41(5)
_cell_angle_alpha 90.
_cell_angle_beta 90.
_cell_angle_gamma 90.
_cell_volume 815.27
_cell_formula_units_Z 8
_symmetry_space_group_name_H-M 'C m c a'
_symmetry_Int_Tables_number 64
_refine_ls_R_factor_all 0.12
loop_
_symmetry_equiv_pos_site_id
_symmetry_equiv_pos_as_xyz
1 '-x, -y+1/2, z+1/2'
2 '-x, y+1/2, -z+1/2'
3 '-x, y, z'
4 '-x, -y, -z'
5 'x, y+1/2, -z+1/2'
6 'x, -y+1/2, z+1/2'
7 'x, -y, -z'
8 'x, y, z'
9 '-x+1/2, -y, z+1/2'
10 '-x+1/2, y, -z+1/2'
11 '-x+1/2, y+1/2, z'
12 '-x+1/2, -y+1/2, -z'
13 'x+1/2, y, -z+1/2'
14 'x+1/2, -y, z+1/2'
15 'x+1/2, -y+1/2, -z'
16 'x+1/2, y+1/2, z'
loop_
_atom_type_symbol
_atom_type_oxidation_number
Se2+ 2
C2+ 2
N3- -3
loop_
_atom_site_label
_atom_site_type_symbol
_atom_site_symmetry_multiplicity
_atom_site_Wyckoff_symbol
_atom_site_fract_x
_atom_site_fract_y
_atom_site_fract_z
_atom_site_B_iso_or_equiv
_atom_site_occupancy
_atom_site_attached_hydrogens
Se1 Se2+ 8 f 0. 0.16 0.122 .05 1. 0
C1 C2+ 16 g 0.18 0.29 0.125 .1 1. 0
N1 N3- 16 g 0.32 0.41 0.125 .14 1. 0
#End of TTdata_173995-ICSD