
#(C) 2017 by FIZ Karlsruhe - Leibniz Institute for Information Infrastructure.  All rights reserved.
data_27536-ICSD
_database_code_ICSD 27536
_audit_creation_date 1980-01-01
_audit_update_record 1984-11-30
_chemical_name_systematic 'Magnesium silicate'
_chemical_formula_structural 'Mg2 Si O4'
_chemical_formula_sum 'Mg2 O4 Si1'
_chemical_name_structure_type Na2MnCl4
_exptl_crystal_density_diffrn 3.86
_publ_section_title

;
Computer-simulated crystal structures of observed and hypothetical Mg2 Si O4
polymorphs of low and high density
;
loop_
_citation_id
_citation_journal_full
_citation_year
_citation_journal_volume
_citation_page_first
_citation_page_last
_citation_journal_id_ASTM
primary 'American Mineralogist' 1972 57 709 731 AMMIAY
loop_
_publ_author_name
'Baur, W.H.'
_cell_length_a 4.98
_cell_length_b 8.85
_cell_length_c 2.75
_cell_angle_alpha 90.
_cell_angle_beta 90.
_cell_angle_gamma 90.
_cell_volume 121.2
_cell_formula_units_Z 2
_symmetry_space_group_name_H-M 'P b a m'
_symmetry_Int_Tables_number 55
loop_
_symmetry_equiv_pos_site_id
_symmetry_equiv_pos_as_xyz
1 'x+1/2, -y+1/2, z'
2 '-x+1/2, y+1/2, z'
3 'x, y, -z'
4 '-x, -y, -z'
5 '-x+1/2, y+1/2, -z'
6 'x+1/2, -y+1/2, -z'
7 '-x, -y, z'
8 'x, y, z'
loop_
_atom_type_symbol
_atom_type_oxidation_number
Si4+ 4
Mg2+ 2
O2- -2
loop_
_atom_site_label
_atom_site_type_symbol
_atom_site_symmetry_multiplicity
_atom_site_Wyckoff_symbol
_atom_site_fract_x
_atom_site_fract_y
_atom_site_fract_z
_atom_site_B_iso_or_equiv
_atom_site_occupancy
_atom_site_attached_hydrogens
Si1 Si4+ 2 a 0 0 0 . 1. 0
Mg1 Mg2+ 4 h 0.0819 0.3329 0.5 . 1. 0
O1 O2- 4 h 0.2164 0.0448 0.5 . 1. 0
O2 O2- 4 g 0.3925 0.3087 0 . 1. 0
#End of TTdata_27536-ICSD