
#(C) 2017 by FIZ Karlsruhe - Leibniz Institute for Information Infrastructure.  All rights reserved.
data_98407-ICSD
_database_code_ICSD 98407
_audit_creation_date 2005-04-01
_chemical_name_systematic 'Carbon dioxide - IV'
_chemical_formula_structural 'C O2'
_chemical_formula_sum 'C1 O2'
_exptl_crystal_density_diffrn 2.57
_cell_measurement_pressure 15000000.
_publ_section_title 'Crystal structure of bent carbon dioxide phase IV'
loop_
_citation_id
_citation_journal_full
_citation_year
_citation_journal_volume
_citation_page_first
_citation_page_last
_citation_journal_id_ASTM
primary 'Physical Review, Serie 3. B - Condensed Matter (18,1978-)' 2003 67
014107-1 014107-9 PRBMDO
loop_
_publ_author_name
'Park, J.-H.'
'Yoo, C.S.'
'Iota, V.'
'Nicol, M.F.'
'Le Bihan, T.'
_cell_length_a 4.3441(8)
_cell_length_b 6.111(3)
_cell_length_c 4.285(1)
_cell_angle_alpha 90
_cell_angle_beta 90
_cell_angle_gamma 90
_cell_volume 113.75
_cell_formula_units_Z 4
_symmetry_space_group_name_H-M 'P b c n'
_symmetry_Int_Tables_number 60
_refine_ls_R_factor_all 0.0231
loop_
_symmetry_equiv_pos_site_id
_symmetry_equiv_pos_as_xyz
1 'x, -y, z+1/2'
2 '-x+1/2, y+1/2, z'
3 'x+1/2, y+1/2, -z+1/2'
4 '-x, -y, -z'
5 '-x, y, -z+1/2'
6 'x+1/2, -y+1/2, -z'
7 '-x+1/2, -y+1/2, z+1/2'
8 'x, y, z'
loop_
_atom_type_symbol
_atom_type_oxidation_number
C4+ 4
O2- -2
loop_
_atom_site_label
_atom_site_type_symbol
_atom_site_symmetry_multiplicity
_atom_site_Wyckoff_symbol
_atom_site_fract_x
_atom_site_fract_y
_atom_site_fract_z
_atom_site_B_iso_or_equiv
_atom_site_occupancy
_atom_site_attached_hydrogens
C1 C4+ 4 c 0 0.323(4) 0.25 0.169(9) 1. 0
O1 O2- 8 d 0.272(2) 0.370(2) 0.467(2) 0.084(4) 1. 0
#End of TTdata_98407-ICSD